webassembly/ejemplos_dzn/9/folder9_json_1.dzn
TERM = { '.', 's(2)', 's(4)', 'in_1', 'local_0', 'in_2', 'in_4', 'in_3', 's(1)', 's(0)', 'in_5', 's(3)', 'in_0'};
null = '.';
s = 9;
n = 11;
ndeps = 4;
max_registers_sz = 4;
NR = 1;
registers = [|'local_0', 's(1)'|];
dependencies = [|'i32.load8_u_1', 'i32.store16_4', |'i32.store16_4', 'call[function_index(0)]_7', |'call[function_index(0)]_7', 'i32.load8_u_8', |'i32.load_2', 'i32.store16_4'|];
GET_ENUM = { GET1, GET2, GET3, GET4, GET5};
SET_ENUM = { SET1, SET2, SET3, SET4, SET5};
TEE_ENUM = { TEE1, TEE2, TEE3, TEE4, TEE5};
N = 5;
OP = { 'call[function_index(0)]_7', 'i32.load8_u_1', 'i32.load_2', 'i32.store16_4', 'i32.load8_u_8' };
in_ops = [3, 1, 1, 2, 1 ];
out_ops = [2, 1, 1, 0, 1 ];
in1 = ['in_3', 'in_1', 's(0)', 's(1)', 's(3)' ];
in2 = ['in_4', '.', '.', 'in_2', '.' ];
in3 = ['in_5', '.', '.', '.', '.' ];
out1 = ['s(3)', 's(0)', 's(1)', '.', 's(4)' ];
out2 = ['s(2)', '.', '.', '.', '.' ];
out3 = ['.', '.', '.', '.', '.' ];
comm = [false, false, false, false, false ];
gas = [1, 1, 1, 1, 1 ];
sz = [1, 1, 1, 1, 1 ];
stor = [true, false, false, true, false ];
lb = [ 1, 1, 1, 1, 1 ];
ub = [ 9, 9, 9, 9, 9 ];
startstack = [ 'in_0', 'in_1', 'in_2', 'in_3', 'in_4', 'in_5', null, null, null, null, null ];
endstack = [ 's(4)', 's(2)', null, null, null, null, null, null, null, null, null ];
