webassembly/ejemplos_results/9/folder9_json_1.txt
value = 9;
fgas = [2, 1, 1, 1, 1, 1, 1, 1, 1];
fsize = [1, 1, 1, 1, 1, 1, 1, 1, 1];
states = 
[|   in_0,   in_1, in_2, in_3, in_4, in_5, '.', '.', '.',  '.', '.'
 |   in_1,   in_2, in_3, in_4, in_5,  '.', '.', '.', '.',  '.', '.'
 |   in_1,   in_2, in_3, in_4, in_5,  '.', '.', '.', '.', in_0, '.'
 | 's(0)',   in_0, in_3, in_4, in_5,  '.', '.', '.', '.', in_0, '.'
 | 's(0)',   in_0, in_3, in_4, in_5,  '.', '.', '.', '.', in_0, '.'
 | 's(1)',   in_2, in_3, in_4, in_5,  '.', '.', '.', '.', in_0, '.'
 | 's(1)',   in_2, in_3, in_4, in_5,  '.', '.', '.', '.',  '.', '.'
 |   in_3,   in_4, in_5,  '.',  '.',  '.', '.', '.', '.',  '.', '.'
 | 's(3)', 's(2)',  '.',  '.',  '.',  '.', '.', '.', '.',  '.', '.'
 | 's(4)', 's(2)',  '.',  '.',  '.',  '.', '.', '.', '.',  '.', '.'
 |];
register_states = 
[| local_0, '.', '.', '.', '.'
 | local_0, '.', '.', '.', '.'
 |    in_1, '.', '.', '.', '.'
 |    in_1, '.', '.', '.', '.'
 |  's(0)', '.', '.', '.', '.'
 |  's(0)', '.', '.', '.', '.'
 |  's(1)', '.', '.', '.', '.'
 |  's(1)', '.', '.', '.', '.'
 |  's(1)', '.', '.', '.', '.'
 |  's(1)', '.', '.', '.', '.'
 |];
program = [POP, TEE(TEE1), O('i32.load8_u_1'), TEE(TEE1), O('i32.load_2'), TEE(TEE1), O('i32.store16_4'), O('call[function_index(0)]_7'), O('i32.load8_u_8')];
% time elapsed: 0.12 s
----------
value = 8;
fgas = [2, 1, 1, 1, 1, 1, 1, 1, 0];
fsize = [1, 1, 1, 1, 1, 1, 1, 1, 1];
states = 
[|   in_0,   in_1, in_2, in_3, in_4, in_5, '.', '.', '.',  '.', '.'
 |   in_1,   in_2, in_3, in_4, in_5,  '.', '.', '.', '.',  '.', '.'
 |   in_1,   in_2, in_3, in_4, in_5,  '.', '.', '.', '.', in_0, '.'
 | 's(0)', 's(1)', in_3, in_4, in_5,  '.', '.', '.', '.', in_0, '.'
 | 's(1)',   in_2, in_3, in_4, in_5,  '.', '.', '.', '.', in_0, '.'
 | 's(1)',   in_2, in_3, in_4, in_5,  '.', '.', '.', '.',  '.', '.'
 |   in_3,   in_4, in_5,  '.',  '.',  '.', '.', '.', '.',  '.', '.'
 | 's(3)', 's(2)',  '.',  '.',  '.',  '.', '.', '.', '.',  '.', '.'
 | 's(4)', 's(2)',  '.',  '.',  '.',  '.', '.', '.', '.',  '.', '.'
 | 's(4)', 's(2)',  '.',  '.',  '.',  '.', '.', '.', '.',  '.', '.'
 |];
register_states = 
[| local_0, '.', '.', '.', '.'
 | local_0, '.', '.', '.', '.'
 |    in_1, '.', '.', '.', '.'
 |    in_1, '.', '.', '.', '.'
 |    in_1, '.', '.', '.', '.'
 |  's(1)', '.', '.', '.', '.'
 |  's(1)', '.', '.', '.', '.'
 |  's(1)', '.', '.', '.', '.'
 |  's(1)', '.', '.', '.', '.'
 |  's(1)', '.', '.', '.', '.'
 |];
program = [POP, TEE(TEE1), O('i32.load8_u_1'), O('i32.load_2'), TEE(TEE1), O('i32.store16_4'), O('call[function_index(0)]_7'), O('i32.load8_u_8'), NOP];
% time elapsed: 0.12 s
----------
value = 7;
fgas = [1, 1, 1, 1, 1, 1, 1, 0, 0];
fsize = [1, 1, 1, 1, 1, 1, 1, 1, 1];
states = 
[|   in_0,   in_1, in_2, in_3, in_4, in_5, '.', '.', '.', '.', '.'
 |   in_1,   in_2, in_3, in_4, in_5,  '.', '.', '.', '.', '.', '.'
 | 's(0)',   in_0, in_3, in_4, in_5,  '.', '.', '.', '.', '.', '.'
 | 's(1)',   in_2, in_3, in_4, in_5,  '.', '.', '.', '.', '.', '.'
 | 's(1)',   in_2, in_3, in_4, in_5,  '.', '.', '.', '.', '.', '.'
 |   in_3,   in_4, in_5,  '.',  '.',  '.', '.', '.', '.', '.', '.'
 | 's(3)', 's(2)',  '.',  '.',  '.',  '.', '.', '.', '.', '.', '.'
 | 's(4)', 's(2)',  '.',  '.',  '.',  '.', '.', '.', '.', '.', '.'
 | 's(4)', 's(2)',  '.',  '.',  '.',  '.', '.', '.', '.', '.', '.'
 | 's(4)', 's(2)',  '.',  '.',  '.',  '.', '.', '.', '.', '.', '.'
 |];
register_states = 
[| local_0, '.', '.', '.', '.'
 |    in_0, '.', '.', '.', '.'
 |    in_0, '.', '.', '.', '.'
 |    in_0, '.', '.', '.', '.'
 |  's(1)', '.', '.', '.', '.'
 |  's(1)', '.', '.', '.', '.'
 |  's(1)', '.', '.', '.', '.'
 |  's(1)', '.', '.', '.', '.'
 |  's(1)', '.', '.', '.', '.'
 |  's(1)', '.', '.', '.', '.'
 |];
program = [S(SET1), O('i32.load8_u_1'), O('i32.load_2'), TEE(TEE1), O('i32.store16_4'), O('call[function_index(0)]_7'), O('i32.load8_u_8'), NOP, NOP];
% time elapsed: 0.12 s
----------
==========
% time elapsed: 0.12 s
% [value > 6]
